	clingo --stats ../../../../../../../../../../../env/asprilo/asprilo-abstraction-encodings/instances/md/structured/x7_y6_r4/x7_y6_n42_r4_s4_ps1_pr4_u4_o4_l4_N001.lp ../../../../../../../../../../../env/asprilo/asprilo-abstraction-encodings/asprilo/misc/augment-m-to-md.lp ../../../../../../../../../../../env/asprilo/asprilo-abstraction-encodings/encodings/torsten/md/action-MD.lp ../../../../../../../../../../../env/asprilo/asprilo-abstraction-encodings/encodings/torsten/md/goal-MD.lp ../../../../../../../../../../../env/asprilo/asprilo-abstraction-encodings/encodings/torsten/md/output-M.lp -c horizon=15	
clingo version 5.4.0
Reading from ..._y6_n42_r4_s4_ps1_pr4_u4_o4_l4_N001.lp ...
Solving...
Answer: 1
init(object(highway,1),value(at,(1,1))) init(object(highway,2),value(at,(1,2))) init(object(highway,3),value(at,(1,3))) init(object(highway,4),value(at,(1,4))) init(object(highway,5),value(at,(1,5))) init(object(highway,7),value(at,(2,1))) init(object(highway,8),value(at,(2,2))) init(object(highway,11),value(at,(2,5))) init(object(highway,13),value(at,(3,1))) init(object(highway,14),value(at,(3,2))) init(object(highway,17),value(at,(3,5))) init(object(highway,20),value(at,(4,2))) init(object(highway,21),value(at,(4,3))) init(object(highway,22),value(at,(4,4))) init(object(highway,23),value(at,(4,5))) init(object(highway,25),value(at,(5,1))) init(object(highway,26),value(at,(5,2))) init(object(highway,29),value(at,(5,5))) init(object(highway,30),value(at,(5,6))) init(object(highway,31),value(at,(6,1))) init(object(highway,32),value(at,(6,2))) init(object(highway,35),value(at,(6,5))) init(object(highway,36),value(at,(6,6))) init(object(highway,37),value(at,(7,1))) init(object(highway,38),value(at,(7,2))) init(object(highway,39),value(at,(7,3))) init(object(highway,40),value(at,(7,4))) init(object(highway,41),value(at,(7,5))) init(object(highway,42),value(at,(7,6))) init(object(node,1),value(at,(1,1))) init(object(node,2),value(at,(1,2))) init(object(node,3),value(at,(1,3))) init(object(node,4),value(at,(1,4))) init(object(node,5),value(at,(1,5))) init(object(node,6),value(at,(1,6))) init(object(node,7),value(at,(2,1))) init(object(node,8),value(at,(2,2))) init(object(node,9),value(at,(2,3))) init(object(node,10),value(at,(2,4))) init(object(node,11),value(at,(2,5))) init(object(node,12),value(at,(2,6))) init(object(node,13),value(at,(3,1))) init(object(node,14),value(at,(3,2))) init(object(node,15),value(at,(3,3))) init(object(node,16),value(at,(3,4))) init(object(node,17),value(at,(3,5))) init(object(node,18),value(at,(3,6))) init(object(node,19),value(at,(4,1))) init(object(node,20),value(at,(4,2))) init(object(node,21),value(at,(4,3))) init(object(node,22),value(at,(4,4))) init(object(node,23),value(at,(4,5))) init(object(node,24),value(at,(4,6))) init(object(node,25),value(at,(5,1))) init(object(node,26),value(at,(5,2))) init(object(node,27),value(at,(5,3))) init(object(node,28),value(at,(5,4))) init(object(node,29),value(at,(5,5))) init(object(node,30),value(at,(5,6))) init(object(node,31),value(at,(6,1))) init(object(node,32),value(at,(6,2))) init(object(node,33),value(at,(6,3))) init(object(node,34),value(at,(6,4))) init(object(node,35),value(at,(6,5))) init(object(node,36),value(at,(6,6))) init(object(node,37),value(at,(7,1))) init(object(node,38),value(at,(7,2))) init(object(node,39),value(at,(7,3))) init(object(node,40),value(at,(7,4))) init(object(node,41),value(at,(7,5))) init(object(node,42),value(at,(7,6))) init(object(robot,1),value(at,(4,6))) init(object(robot,2),value(at,(3,6))) init(object(robot,3),value(at,(2,6))) init(object(robot,4),value(at,(1,6))) init(object(destination,1),value(at,(5,3))) init(object(destination,2),value(at,(2,4))) init(object(destination,3),value(at,(6,4))) init(object(destination,4),value(at,(5,4))) occurs(object(robot,1),action(move,(0,-1)),1) occurs(object(robot,1),action(move,(1,0)),2) occurs(object(robot,1),action(move,(0,-1)),3) occurs(object(robot,1),action(move,(0,-1)),4) occurs(object(robot,2),action(move,(0,-1)),1) occurs(object(robot,2),action(move,(-1,0)),2) occurs(object(robot,2),action(move,(0,-1)),3) occurs(object(robot,3),action(move,(1,0)),1) occurs(object(robot,3),action(move,(1,0)),2) occurs(object(robot,3),action(move,(0,-1)),3) occurs(object(robot,3),action(move,(0,-1)),4) occurs(object(robot,3),action(move,(1,0)),5) occurs(object(robot,3),action(move,(1,0)),6) occurs(object(robot,4),action(move,(1,0)),1) occurs(object(robot,4),action(move,(1,0)),2) occurs(object(robot,4),action(move,(1,0)),3) occurs(object(robot,4),action(move,(0,-1)),4) occurs(object(robot,4),action(move,(0,-1)),5) occurs(object(robot,4),action(move,(1,0)),6)
SATISFIABLE

Models       : 1+
Calls        : 1
Time         : 0.061s (Solving: 0.00s 1st Model: 0.00s Unsat: 0.00s)
CPU Time     : 0.052s

Choices      : 216     
Conflicts    : 4        (Analyzed: 4)
Restarts     : 0       
Model-Level  : 195.0   
Problems     : 1        (Average Length: 0.00 Splits: 0)
Lemmas       : 4        (Deleted: 0)
  Binary     : 0        (Ratio:   0.00%)
  Ternary    : 0        (Ratio:   0.00%)
  Conflict   : 4        (Average Length:    9.5 Ratio: 100.00%) 
  Loop       : 0        (Average Length:    0.0 Ratio:   0.00%) 
  Other      : 0        (Average Length:    0.0 Ratio:   0.00%) 
Backjumps    : 4        (Average:  5.25 Max:   8 Sum:     21)
  Executed   : 4        (Average:  5.25 Max:   8 Sum:     21 Ratio: 100.00%)
  Bounded    : 0        (Average:  0.00 Max:   0 Sum:      0 Ratio:   0.00%)

Rules        : 21933    (Original: 17615)
  Choice     : 60      
Atoms        : 5171    
Bodies       : 14836    (Original: 10518)
  Count      : 55       (Original: 638)
Equivalences : 2554     (Atom=Atom: 99 Body=Body: 85 Other: 2370)
Tight        : Yes
Variables    : 11311    (Eliminated:    0 Frozen: 1871)
Constraints  : 41372    (Binary:  75.6% Ternary:  17.3% Other:   7.2%)

